1411903
23 3 112203
3 7 5029
7 27 7370
27 8 98591
8 12 61690
12 10 116497
10 17 52694
17 24 276644
24 1 54636
1 20 190821
20 19 59143
19 22 8375
22 11 10310
11 16 17050
16 26 23200
26 14 12452
14 29 53997
29 30 57184
30 6 7944
6 2 7286
2 28 6275
28 4 9482
4 5 10978
5 13 6994
13 25 1644
25 18 7368
18 9 9870
9 15 13951
15 21 19591
21 23 92634
